(set-info :smt-lib-version 2.6)
(set-logic QF_NIA)
(set-info :source |AProve team, see http://aprove.informatik.rwth-aachen.de/, submitted for SMT-COMP 2014|)
(set-info :category "industrial")
(set-info :status sat)
(declare-fun a__5 () Int)
(declare-fun a__2 () Int)
(declare-fun a__4 () Int)
(declare-fun a__6 () Int)
(declare-fun a__3 () Int)
(assert (and (>= (+ (* a__5 a__2) (* (- 0 1) (* a__5 a__4)) (- 0 1)) 0) (>= (+ (* a__6 a__2) (* (- 0 1) a__3) (* (- 0 1) (* a__6 a__4))) 0) (>= (+ a__3 a__4 (* (- 0 1) a__2)) 0) (>= a__5 0) (>= a__2 0) (>= a__4 0) (>= a__6 0) (>= a__3 0)))
(check-sat)
;;(get-assignment)
;;(get-model)
(exit)
